unsat
(:max-memory         18.62
 :memory             18.42
 :nlsat-arith-var    3
 :nlsat-atoms        15
 :nlsat-bool-var     1
 :nlsat-clauses      12
 :nlsat-conflicts    4
 :nlsat-propagations 19
 :nlsat-stages       5
 :num-allocs         99082
 :rlimit-count       6083
 :time               0.01
 :total-time         0.02)
